p wcnf 123 184 185 
1 94 -122 0 
1 119 8 0 
1 -27 -23 0 
1 -65 -89 0 
1 -97 48 0 
1 110 88 0 
1 50 -16 0 
1 -100 88 0 
1 52 -82 0 
1 42 -84 0 
1 -11 13 0 
1 28 30 0 
1 123 116 0 
1 -58 79 0 
1 -45 55 0 
1 54 -119 0 
1 -33 -35 0 
1 -56 -98 0 
1 -51 80 0 
1 99 22 0 
1 61 33 0 
1 -117 -86 0 
1 3 -10 0 
1 109 -74 0 
1 -50 40 0 
1 109 -82 0 
1 -56 -34 0 
1 3 23 0 
1 -119 -35 0 
1 -76 -12 0 
1 52 84 0 
1 -5 -90 0 
1 -108 5 0 
1 73 -105 0 
1 39 -121 0 
1 52 108 0 
1 -30 2 0 
1 -62 -36 0 
1 79 34 0 
1 -102 -30 0 
1 -70 -106 0 
1 -90 -103 0 
1 44 101 0 
1 -121 32 0 
1 3 105 0 
1 70 -72 0 
1 -52 28 0 
1 29 -24 0 
1 63 17 0 
1 105 22 0 
1 84 89 0 
1 113 88 0 
1 9 74 0 
1 18 100 0 
1 86 -74 0 
1 -23 117 0 
1 46 -14 0 
1 19 -91 0 
1 -38 -19 0 
1 -118 -32 0 
1 74 -11 0 
1 57 -55 0 
1 105 45 0 
1 65 5 0 
1 -47 -46 0 
1 87 28 0 
1 30 7 0 
1 -20 97 0 
1 -9 31 0 
1 59 14 0 
1 26 -69 0 
1 34 -95 0 
1 20 51 0 
1 7 25 0 
1 26 110 0 
1 -15 -10 0 
1 41 111 0 
1 -94 -20 0 
1 -7 28 0 
1 42 -32 0 
1 -35 -9 0 
1 38 112 0 
1 -104 74 0 
1 105 -4 0 
1 48 40 0 
1 -29 -49 0 
1 -122 121 0 
1 98 -80 0 
1 77 -3 0 
1 59 48 0 
1 -63 -32 0 
1 46 42 0 
1 105 59 0 
1 118 64 0 
1 115 7 0 
1 -52 55 0 
1 -13 -88 0 
1 -108 -91 0 
1 43 19 0 
1 71 -69 0 
1 75 90 0 
1 -13 -93 0 
1 99 -43 0 
1 -47 -54 0 
1 -26 -63 0 
1 63 100 0 
1 -13 -105 0 
1 -108 -1 0 
1 -12 -55 0 
1 27 -102 0 
1 -13 95 0 
1 87 122 0 
1 -109 -93 0 
1 110 56 0 
1 60 75 0 
1 111 37 0 
1 66 52 0 
1 111 -4 0 
1 -1 -4 0 
1 -57 -26 0 
1 -40 85 0 
1 -79 -67 0 
1 72 -120 0 
1 50 -65 0 
1 122 5 0 
1 25 -94 0 
1 -78 -58 0 
1 4 -104 0 
1 -42 12 0 
1 83 -8 0 
1 17 42 0 
1 25 76 0 
1 -21 43 0 
1 41 56 0 
1 -83 123 0 
1 -59 -72 0 
1 66 70 0 
1 -4 -46 0 
1 123 18 0 
1 70 91 0 
1 30 -21 0 
1 -93 -67 0 
1 -100 4 0 
1 -59 -3 0 
1 42 -97 0 
1 24 54 0 
1 -82 25 0 
1 12 2 0 
1 102 -79 0 
1 14 28 0 
1 28 -110 0 
1 -8 -44 0 
1 63 -19 0 
1 102 103 0 
1 -16 -39 0 
1 -123 5 0 
1 -108 -47 0 
1 11 32 0 
1 -7 61 0 
1 -22 -50 0 
1 100 -63 0 
1 -15 9 0 
1 -115 58 0 
1 -78 -12 0 
1 -80 -100 0 
1 -29 123 0 
1 25 62 0 
1 -26 -79 0 
1 5 -9 0 
1 66 -80 0 
1 -74 -86 0 
1 -72 -31 0 
1 88 -107 0 
1 -24 71 0 
1 50 -74 0 
1 20 59 0 
1 21 -122 0 
1 -31 -39 0 
1 4 -13 0 
1 -123 -10 0 
1 31 -87 0 
1 -50 -35 0 
1 -116 46 0 
1 98 -41 0 
